GLPSOL--GLPK LP/MIP Solver 5.0
Parameter(s) specified in the command line:
 --cpxlp --first inputs/new_no_tr/order/triang10_3_up_right_input.lp -o solutions/new_no_tr/triang10_3_up_right_input.lp
Reading problem data from 'inputs/new_no_tr/order/triang10_3_up_right_input.lp'...
inputs/new_no_tr/order/triang10_3_up_right_input.lp:16639: warning: lower bound of variable 'm_54_54' redefined
inputs/new_no_tr/order/triang10_3_up_right_input.lp:16639: warning: upper bound of variable 'm_54_54' redefined
16286 rows, 6106 columns, 47716 non-zeros
6106 integer variables, 5760 of which are binary
22689 lines were read
GLPK Integer Optimizer 5.0
16286 rows, 6106 columns, 47716 non-zeros
6106 integer variables, 5760 of which are binary
Preprocessing...
90 hidden packing inequaliti(es) were detected
327 hidden covering inequaliti(es) were detected
2790 constraint coefficient(s) were reduced
15314 rows, 5563 columns, 44304 non-zeros
5563 integer variables, 5507 of which are binary
Scaling...
 A: min|aij| =  1.000e+00  max|aij| =  9.800e+01  ratio =  9.800e+01
GM: min|aij| =  3.307e-01  max|aij| =  3.024e+00  ratio =  9.146e+00
EQ: min|aij| =  1.184e-01  max|aij| =  1.000e+00  ratio =  8.449e+00
2N: min|aij| =  6.250e-02  max|aij| =  1.625e+00  ratio =  2.600e+01
Constructing initial basis...
Size of triangular part is 13919
Solving LP relaxation...
GLPK Simplex Optimizer 5.0
15314 rows, 5563 columns, 44304 non-zeros
      0: obj =   2.640000000e+02 inf =   8.655e+02 (525)
Perturbing LP to avoid stalling [199]...
   3788: obj =   4.481249528e+02 inf =   2.043e+02 (301) 36
   5642: obj =   5.134743174e+02 inf =   4.381e-06 (0) 18
*  8426: obj =   2.804633974e+02 inf =   1.237e-05 (1417) 27
* 11149: obj =   2.652985910e+02 inf =   4.555e-06 (2017) 26
* 13858: obj =   2.651461087e+02 inf =   5.452e-06 (1716) 26
* 16693: obj =   2.651068056e+02 inf =   7.713e-06 (801) 26
Removing LP perturbation [18147]...
* 18147: obj =   2.651034545e+02 inf =   2.315e-14 (0) 13
OPTIMAL LP SOLUTION FOUND
Integer optimization begins...
Long-step dual simplex will be used
+ 18147: mip =     not found yet >=              -inf        (1; 0)
# 24673: obj =   2.660000014e+02 inf =   0.000e+00 (4016) 44 95%
# 26959: obj =   2.660000124e+02 inf =   0.000e+00 (4188) 22 99%
# 28770: obj =   2.660477628e+02 inf =   0.000e+00 (4326) 17 43%
# 31208: obj =   2.666116807e+02 inf =   0.000e+00 (3476) 22 85%
# 33583: obj =   2.666633437e+02 inf =   0.000e+00 (268) 22 83%
# 33667: obj =   2.666647990e+02 inf =   0.000e+00 (0) 1 70%
+ 33667: mip =     not found yet >=   2.660000000e+02        (2; 2)
+ 37615: mip =     not found yet >=   2.660000000e+02        (16; 3)
+ 42564: mip =     not found yet >=   2.670000000e+02        (13; 6)
+ 45602: mip =     not found yet >=   2.670000000e+02        (18; 16)
Time used: 60.0 secs.  Memory used: 19.1 Mb.
+ 49423: mip =     not found yet >=   2.670000000e+02        (31; 20)
+ 52842: mip =     not found yet >=   2.670000000e+02        (44; 21)
# 57942: obj =   2.669999961e+02 inf =   0.000e+00 (1621) 47 95%
# 58488: obj =   2.670000000e+02 inf =   0.000e+00 (0) 6 99%
+ 58488: mip =     not found yet >=   2.670000000e+02        (47; 23)
+ 62124: mip =     not found yet >=   2.670000000e+02        (55; 23)
# 66413: obj =   2.724415517e+02 inf =   0.000e+00 (3988) 39 49%
# 68900: obj =   2.757720629e+02 inf =   0.000e+00 (3301) 22 83%
# 70843: obj =   2.758064453e+02 inf =   0.000e+00 (3579) 18 55%
# 73298: obj =   2.780993339e+02 inf =   0.000e+00 (2550) 23 96%
# 75769: obj =   2.783393118e+02 inf =   0.000e+00 (3811) 24 95%
# 78098: obj =   2.784540795e+02 inf =   0.000e+00 (2165) 22 98%
# 80476: obj =   2.784915446e+02 inf =   0.000e+00 (2816) 22 88%
# 82707: obj =   2.791697980e+02 inf =   0.000e+00 (3958) 20 85%
# 84953: obj =   2.791698256e+02 inf =   0.000e+00 (2862) 21 99%
# 87110: obj =   2.791698313e+02 inf =   0.000e+00 (1756) 21 100%
# 88957: obj =   2.791698113e+02 inf =   3.331e-16 (0) 18 99%
+ 88957: mip =     not found yet >=   2.670000000e+02        (55; 23)
Time used: 145.9 secs.  Memory used: 19.3 Mb.
+ 91844: mip =     not found yet >=   2.670000000e+02        (65; 24)
# 97037: obj =   2.683482790e+02 inf =   0.000e+00 (1026) 48 78%
# 99303: obj =   2.686540771e+02 inf =   4.337e-18 (0) 22 70%
+ 99303: mip =     not found yet >=   2.670000000e+02        (65; 24)
+102598: mip =     not found yet >=   2.670000000e+02        (86; 27)
+106563: mip =     not found yet >=   2.670000000e+02        (112; 29)
+111744: mip =     not found yet >=   2.670000000e+02        (112; 30)
#117118: obj =   2.792217982e+02 inf =   0.000e+00 (2687) 46 62%
#119866: obj =   2.802293106e+02 inf =   0.000e+00 (3232) 24 69%
#122287: obj =   2.807435024e+02 inf =   0.000e+00 (3043) 23 74%
#124919: obj =   2.808687059e+02 inf =   0.000e+00 (2683) 25 99%
#127641: obj =   2.837312793e+02 inf =   0.000e+00 (3260) 25 80%
#130059: obj =   2.846427190e+02 inf =   0.000e+00 (2300) 23 71%
#132752: obj =   2.848096317e+02 inf =   0.000e+00 (1224) 26 99%
#135427: obj =   2.850185026e+02 inf =   0.000e+00 (1909) 25 81%
#137648: obj =   2.853194852e+02 inf =   0.000e+00 (0) 21 69%
+137648: mip =     not found yet >=   2.670000000e+02        (113; 30)
Time used: 235.2 secs.  Memory used: 19.6 Mb.
#142681: obj =   2.862431826e+02 inf =   0.000e+00 (2082) 53 66%
#145313: obj =   2.862930296e+02 inf =   0.000e+00 (2580) 25 83%
#147931: obj =   2.863001230e+02 inf =   0.000e+00 (2825) 24 84%
#150620: obj =   2.863085691e+02 inf =   0.000e+00 (797) 26 89%
 152035: sum =   0.000000000e+00 inf =   0.000e+00 (0) 13 82%
#152043: obj =   2.863107087e+02 inf =   1.284e-29 (0) 50%
+152043: mip =     not found yet >=   2.670000000e+02        (114; 30)
#157891: obj =   2.883440244e+02 inf =   0.000e+00 (3090) 59 73%
#160137: obj =   2.986140976e+02 inf =   0.000e+00 (3083) 21 64%
#162816: obj =   2.998653757e+02 inf =   0.000e+00 (2491) 26 99%
#165460: obj =   2.998798235e+02 inf =   0.000e+00 (2080) 25 89%
 166698: sum =   0.000000000e+00 inf =   6.939e-18 (0) 12 85%
#166720: obj =   3.001799163e+02 inf =   0.000e+00 (0) 81%
+166720: mip =     not found yet >=   2.670000000e+02        (115; 30)
Time used: 296.4 secs.  Memory used: 19.7 Mb.
+173790: mip =     not found yet >=   2.670000000e+02        (116; 31)
#179900: obj =   2.681409576e+02 inf =   0.000e+00 (2203) 52 83%
#179964: obj =   2.681444261e+02 inf =   0.000e+00 (0) 48%
+179964: mip =     not found yet >=   2.670000000e+02        (118; 32)
+183796: mip =     not found yet >=   2.670000000e+02        (122; 33)
+187331: mip =     not found yet >=   2.670000000e+02        (126; 34)
#192432: obj =   2.670000033e+02 inf =   0.000e+00 (1532) 49 96%
#194223: obj =   2.670584774e+02 inf =   0.000e+00 (0) 17 78%
+194223: mip =     not found yet >=   2.670000000e+02        (126; 34)
+198862: mip =     not found yet >=   2.670000000e+02        (129; 34)
#205908: obj =   2.715212378e+02 inf =   0.000e+00 (1440) 54 83%
#206769: obj =   2.722206416e+02 inf =   0.000e+00 (0) 8 70%
+206769: mip =     not found yet >=   2.670000000e+02        (133; 35)
Time used: 363.2 secs.  Memory used: 19.9 Mb.
#213104: obj =   2.670000070e+02 inf =   0.000e+00 (3083) 52 96%
#215339: obj =   2.674357338e+02 inf =   0.000e+00 (0) 21 76%
+215339: mip =     not found yet >=   2.670000000e+02        (135; 36)
+219448: mip =     not found yet >=   2.670000000e+02        (138; 37)
+226000: mip =     not found yet >=   2.670000000e+02        (139; 39)
+229255: mip =     not found yet >=   2.670000000e+02        (141; 39)
+232269: mip =     not found yet >=   2.670000000e+02        (142; 40)
+235518: mip =     not found yet >=   2.670000000e+02        (166; 40)
+238857: mip =     not found yet >=   2.670000000e+02        (196; 41)
#244248: obj =   2.670000012e+02 inf =   0.000e+00 (2230) 49 96%
#246021: obj =   2.670000000e+02 inf =   0.000e+00 (0) 17 99%
+246021: mip =     not found yet >=   2.670000000e+02        (197; 42)
Time used: 431.4 secs.  Memory used: 20.4 Mb.
#252840: obj =   2.670000020e+02 inf =   0.000e+00 (707) 49 96%
#255021: obj =   2.670488895e+02 inf =   0.000e+00 (0) 21 87%
+255021: mip =     not found yet >=   2.670000000e+02        (202; 43)
+258591: mip =     not found yet >=   2.670000000e+02        (203; 43)
+263515: mip =     not found yet >=   2.670000000e+02        (212; 43)
#269699: obj =   2.678069568e+02 inf =   0.000e+00 (1737) 51 86%
#271320: obj =   2.681263904e+02 inf =   0.000e+00 (0) 14 73%
+271320: mip =     not found yet >=   2.670000000e+02        (221; 44)
+275109: mip =     not found yet >=   2.670000000e+02        (237; 46)
#280043: obj =   2.737536064e+02 inf =   0.000e+00 (3155) 46 75%
#282518: obj =   2.747102539e+02 inf =   0.000e+00 (4327) 23 96%
#284993: obj =   2.756683799e+02 inf =   0.000e+00 (2441) 23 96%
#287095: obj =   2.758859643e+02 inf =   0.000e+00 (3888) 20 65%
#289534: obj =   2.771842884e+02 inf =   0.000e+00 (2209) 24 98%
#291967: obj =   2.837099951e+02 inf =   0.000e+00 (3520) 23 97%
#294387: obj =   2.849085899e+02 inf =   0.000e+00 (2312) 23 93%
#296846: obj =   2.859858128e+02 inf =   0.000e+00 (2302) 22 87%
#299290: obj =   2.866952809e+02 inf =   0.000e+00 (1942) 23 80%
#301647: obj =   2.935226500e+02 inf =   0.000e+00 (2750) 22 82%
#303268: obj =   2.938036710e+02 inf =   0.000e+00 (0) 15 76%
+303268: mip =     not found yet >=   2.670000000e+02        (237; 46)
Time used: 543.8 secs.  Memory used: 20.6 Mb.
#309675: obj =   3.002930520e+02 inf =   0.000e+00 (4531) 42 77%
#311469: obj =   3.046409423e+02 inf =   2.199e-13 (3124) 17 99%
+311469: mip =     not found yet >=   2.670000000e+02        (249; 48)
#315798: obj =   3.645820389e+02 inf =   0.000e+00 (4435) 41 57%
#318242: obj =   3.673314940e+02 inf =   0.000e+00 (3426) 23 82%
#320978: obj =   3.807278686e+02 inf =   0.000e+00 (2196) 25 99%
#323468: obj =   3.859888145e+02 inf =   0.000e+00 (3270) 24 98%
#325725: obj =   3.859999754e+02 inf =   0.000e+00 (3522) 20 97%
#327866: obj =   3.859999919e+02 inf =   0.000e+00 (2493) 20 100%
#329958: obj =   3.859999947e+02 inf =   0.000e+00 (2513) 20 100%
#332013: obj =   3.859999951e+02 inf =   0.000e+00 (2164) 20 99%
#332964: obj =   3.860000000e+02 inf =   0.000e+00 (0) 10 99%
+332964: mip =     not found yet >=   2.670000000e+02        (250; 48)
Time used: 607.9 secs.  Memory used: 20.7 Mb.
#337991: obj =   3.333738817e+02 inf =   0.000e+00 (3059) 46 87%
#340272: obj =   3.505932297e+02 inf =   2.321e-13 (2903) 22 99%
+340272: mip =     not found yet >=   2.670000000e+02        (247; 51)
#344961: obj =   3.223182064e+02 inf =   0.000e+00 (4053) 43 70%
#347525: obj =   3.370753378e+02 inf =   0.000e+00 (3661) 24 95%
#350132: obj =   3.371387762e+02 inf =   0.000e+00 (2675) 23 85%
#352642: obj =   3.445838203e+02 inf =   0.000e+00 (3871) 24 94%
#354720: obj =   3.465191022e+02 inf =   0.000e+00 (3506) 19 74%
#357289: obj =   3.465387990e+02 inf =   0.000e+00 (3177) 25 99%
#358016: obj =   3.467803675e+02 inf =   2.651e-15 (2906) 7 99%
+358016: mip =     not found yet >=   2.670000000e+02        (246; 52)
+362470: mip =     not found yet >=   2.670000000e+02        (245; 53)
#367283: obj =   3.504010547e+02 inf =   0.000e+00 (4150) 53 66%
#369808: obj =   4.083606510e+02 inf =   0.000e+00 (2524) 23 93%
#370012: obj =   4.285766948e+02 inf =   0.000e+00 (2560) 2 97%
+370012: mip =     not found yet >=   2.670000000e+02        (244; 54)
Time used: 683.3 secs.  Memory used: 20.8 Mb.
#374365: obj =   2.978049714e+02 inf =   0.000e+00 (4226) 40 59%
#376768: obj =   2.978167240e+02 inf =   0.000e+00 (3745) 23 95%
#379246: obj =   3.791079143e+02 inf =   0.000e+00 (3180) 23 99%
#379410: obj =   3.859581157e+02 inf =   0.000e+00 (3519) 2 94%
+379410: mip =     not found yet >=   2.670000000e+02        (243; 55)
#384358: obj =   2.724730413e+02 inf =   0.000e+00 (3550) 46 89%
#386783: obj =   2.727529979e+02 inf =   0.000e+00 (2669) 24 96%
#389272: obj =   2.730882152e+02 inf =   0.000e+00 (3273) 24 99%
#390178: obj =   2.734060895e+02 inf =   0.000e+00 (1932) 8 79%
+390178: mip =     not found yet >=   2.670000000e+02        (242; 56)
#395804: obj =   5.185438674e+02 inf =   0.000e+00 (1683) 51 86%
#398572: obj =   5.465633490e+02 inf =   0.000e+00 (1132) 25 98%
#399424: obj =   5.492465021e+02 inf =   1.604e-13 (759) 8 96%
+399424: mip =     not found yet >=   2.670000000e+02        (241; 57)
Time used: 743.3 secs.  Memory used: 20.8 Mb.
+404812: mip =     not found yet >=   2.670000000e+02        (239; 61)
+411939: mip =     not found yet >=   2.670000000e+02        (252; 62)
#419258: obj =   2.810415110e+02 inf =   0.000e+00 (3099) 46 77%
#421731: obj =   2.825249056e+02 inf =   0.000e+00 (2719) 24 83%
#424337: obj =   2.849629814e+02 inf =   0.000e+00 (2616) 25 81%
#426613: obj =   2.864365213e+02 inf =   0.000e+00 (3177) 21 75%
#429038: obj =   2.870982816e+02 inf =   0.000e+00 (3169) 24 99%
#431508: obj =   2.870993231e+02 inf =   0.000e+00 (3261) 23 97%
#433993: obj =   2.876299875e+02 inf =   0.000e+00 (3942) 24 92%
#436509: obj =   2.905763911e+02 inf =   0.000e+00 (1576) 23 77%
 437358: sum =   0.000000000e+00 inf =   0.000e+00 (0) 9 70%
#437360: obj =   2.906909041e+02 inf =   0.000e+00 (0) 0%
+437360: mip =     not found yet >=   2.670000000e+02        (281; 64)
Time used: 814.2 secs.  Memory used: 20.9 Mb.
#443131: obj =   2.915613919e+02 inf =   0.000e+00 (1425) 56 71%
#445971: obj =   2.916844412e+02 inf =   0.000e+00 (58) 26 79%
#446025: obj =   2.916844971e+02 inf =   0.000e+00 (0) 1 61%
+446025: mip =     not found yet >=   2.670000000e+02        (285; 64)
+450989: mip =     not found yet >=   2.670000000e+02        (291; 65)
#455044: obj =   3.165071636e+02 inf =   0.000e+00 (4210) 78 53%
#457562: obj =   3.168025883e+02 inf =   0.000e+00 (3313) 24 98%
#460143: obj =   3.184319267e+02 inf =   0.000e+00 (2585) 24 90%
#462762: obj =   3.184918684e+02 inf =   0.000e+00 (2629) 24 99%
#465207: obj =   3.276863132e+02 inf =   0.000e+00 (2623) 23 99%
#466331: obj =   3.298026928e+02 inf =   9.719e-14 (2723) 11 98%
+466331: mip =     not found yet >=   2.670000000e+02        (288; 68)
Time used: 877.3 secs.  Memory used: 21.1 Mb.
#473974: obj =   3.385750640e+02 inf =   0.000e+00 (3007) 47 76%
#475205: obj =   3.397812523e+02 inf =   1.674e-14 (2153) 12 99%
+475205: mip =     not found yet >=   2.670000000e+02        (286; 70)
#480298: obj =   2.809819866e+02 inf =   0.000e+00 (3140) 48 86%
#482823: obj =   2.859787125e+02 inf =   0.000e+00 (2485) 24 96%
#485454: obj =   2.896159017e+02 inf =   0.000e+00 (2080) 24 92%
 486238: sum =   0.000000000e+00 inf =   0.000e+00 (0) 7 82%
#487696: obj =   2.898568414e+02 inf =   0.000e+00 (1634) 14 84%
+487696: mip =     not found yet >=   2.670000000e+02        (285; 71)
#493011: obj =   2.672790198e+02 inf =   0.000e+00 (886) 50 87%
#494168: obj =   2.674290312e+02 inf =   1.110e-16 (0) 11 63%
+494168: mip =     not found yet >=   2.670000000e+02        (285; 71)
#500253: obj =   3.614645053e+02 inf =   0.000e+00 (2999) 45 76%
#502977: obj =   3.748400303e+02 inf =   0.000e+00 (2576) 26 99%
#504190: obj =   3.807680896e+02 inf =   0.000e+00 (2755) 11 99%
+504190: mip =     not found yet >=   2.670000000e+02        (289; 74)
Time used: 944.5 secs.  Memory used: 21.1 Mb.
#509226: obj =   3.502575697e+02 inf =   0.000e+00 (2267) 47 95%
#511115: obj =   3.511112165e+02 inf =   0.000e+00 (2812) 18 99%
+511115: mip =     not found yet >=   2.670000000e+02        (285; 78)
+514502: mip =     not found yet >=   2.670000000e+02        (284; 79)
#519440: obj =   2.670000017e+02 inf =   0.000e+00 (2422) 47 95%
#521926: obj =   2.676724905e+02 inf =   0.000e+00 (2296) 24 84%
#523834: obj =   2.681878519e+02 inf =   0.000e+00 (0) 18 66%
+523834: mip =     not found yet >=   2.670000000e+02        (284; 79)
+532022: mip =     not found yet >=   2.670000000e+02        (315; 80)
+537835: mip =     not found yet >=   2.670000000e+02        (323; 81)
Time used: 1007.9 secs.  Memory used: 21.3 Mb.
+541879: mip =     not found yet >=   2.670000000e+02        (325; 83)
+546344: mip =     not found yet >=   2.670000000e+02        (325; 83)
+552705: mip =     not found yet >=   2.670000000e+02        (333; 85)
+557077: mip =     not found yet >=   2.670000000e+02        (334; 85)
+561892: mip =     not found yet >=   2.670000000e+02        (344; 86)
+565110: mip =     not found yet >=   2.670000000e+02        (345; 86)
+572224: mip =     not found yet >=   2.670000000e+02        (349; 87)
Time used: 1069.7 secs.  Memory used: 21.5 Mb.
+575673: mip =     not found yet >=   2.670000000e+02        (359; 87)
#581010: obj =   2.846663321e+02 inf =   0.000e+00 (3963) 59 73%
#581428: obj =   3.026826216e+02 inf =   6.562e-13 (3420) 4 95%
+581428: mip =     not found yet >=   2.670000000e+02        (369; 89)
#585645: obj =   2.936200880e+02 inf =   0.000e+00 (4055) 42 62%
#588054: obj =   2.946544324e+02 inf =   0.000e+00 (3436) 23 91%
#590606: obj =   2.989063363e+02 inf =   0.000e+00 (2960) 24 98%
#593095: obj =   2.998205068e+02 inf =   0.000e+00 (2764) 23 97%
#595524: obj =   3.003100731e+02 inf =   0.000e+00 (1834) 23 99%
#598007: obj =   3.004038297e+02 inf =   0.000e+00 (1315) 23 90%
 598512: sum =   0.000000000e+00 inf =   0.000e+00 (0) 5 79%
#598531: obj =   3.004052049e+02 inf =   0.000e+00 (0) 84%
+598531: mip =     not found yet >=   2.670000000e+02        (369; 89)
+601932: mip =     not found yet >=   2.670000000e+02        (380; 89)
Time used: 1129.9 secs.  Memory used: 21.7 Mb.
#607120: obj =   3.010000041e+02 inf =   0.000e+00 (842) 49 95%
#609480: obj =   3.010075994e+02 inf =   0.000e+00 (521) 23 60%
#609796: obj =   3.010079255e+02 inf =   0.000e+00 (0) 3 79%
+609796: mip =     not found yet >=   2.670000000e+02        (380; 89)
+613405: mip =     not found yet >=   2.670000000e+02        (389; 91)
+616452: mip =     not found yet >=   2.670000000e+02        (388; 92)
+623008: mip =     not found yet >=   2.670000000e+02        (386; 94)
#628261: obj =   2.813878938e+02 inf =   0.000e+00 (3999) 50 96%
#628335: obj =   2.895537864e+02 inf =   3.942e-12 (4720) 88%
+628335: mip =     not found yet >=   2.670000000e+02        (385; 95)
+631637: mip =     not found yet >=   2.670000000e+02        (384; 96)
#636524: obj =   2.871791161e+02 inf =   0.000e+00 (3251) 45 80%
#639026: obj =   2.884093488e+02 inf =   0.000e+00 (4044) 23 99%
#639330: obj =   2.884093566e+02 inf =   0.000e+00 (3433) 3 99%
+639330: mip =     not found yet >=   2.670000000e+02        (383; 97)
Time used: 1203.4 secs.  Memory used: 21.8 Mb.
+642229: mip =     not found yet >=   2.670000000e+02        (381; 99)
#649999: obj =   2.806624269e+02 inf =   0.000e+00 (4113) 48 95%
#650754: obj =   2.845791055e+02 inf =   7.913e-13 (3452) 8 99%
+650754: mip =     not found yet >=   2.670000000e+02        (392; 102)
#655451: obj =   2.792541882e+02 inf =   0.000e+00 (3769) 46 78%
#656649: obj =   2.801566935e+02 inf =   2.976e-13 (2864) 11 99%
+656649: mip =     not found yet >=   2.670000000e+02        (389; 105)
+661600: mip =     not found yet >=   2.670000000e+02        (390; 106)
+664980: mip =     not found yet >=   2.670000000e+02        (389; 107)
#671949: obj =   2.669999976e+02 inf =   0.000e+00 (2390) 47 95%
#674325: obj =   2.670000136e+02 inf =   0.000e+00 (4889) 22 99%
#675057: obj =   2.676955319e+02 inf =   2.087e-16 (1664) 8 58%
+675057: mip =     not found yet >=   2.670000000e+02        (386; 110)
Time used: 1272.2 secs.  Memory used: 21.8 Mb.
#680120: obj =   2.707281493e+02 inf =   0.000e+00 (3758) 48 95%
 681418: sum =   0.000000000e+00 inf =   0.000e+00 (0) 12 85%
#683080: obj =   2.744698225e+02 inf =   0.000e+00 (2514) 16 76%
+683080: mip =     not found yet >=   2.670000000e+02        (385; 111)
#687623: obj =   2.705610329e+02 inf =   0.000e+00 (4159) 54 45%
#690113: obj =   2.718875115e+02 inf =   0.000e+00 (3551) 24 96%
#692718: obj =   2.736705568e+02 inf =   0.000e+00 (2962) 25 99%
#695176: obj =   1.856213868e+03 inf =   0.000e+00 (4399) 24 99%
#695750: obj =   4.414552935e+03 inf =   1.801e-10 (4641) 5 99%
+695750: mip =     not found yet >=   2.670000000e+02        (383; 113)
#700848: obj =   2.810122688e+02 inf =   0.000e+00 (4088) 48 94%
#703189: obj =   2.860099855e+02 inf =   0.000e+00 (2758) 22 97%
#705547: obj =   2.885876151e+02 inf =   0.000e+00 (2775) 23 99%
#706492: obj =   2.907516313e+02 inf =   4.640e-14 (2442) 9 99%
+706492: mip =     not found yet >=   2.670000000e+02        (382; 114)
Time used: 1336.4 secs.  Memory used: 21.8 Mb.
#714330: obj =   3.083759216e+02 inf =   0.000e+00 (2346) 52 79%
Warning: numerical instability (dual simplex, phase II)
Warning: numerical instability (dual simplex, phase II)
 717327: sum =   3.974466478e-03 inf =   3.974e-03 (404) 28 17%
 717856: sum =   0.000000000e+00 inf =   1.350e-06 (0) 4 76%
Warning: numerical instability (dual simplex, phase II)
 719191: sum =   0.000000000e+00 inf =   0.000e+00 (0) 10 19%
#722295: obj =   2.554523100e+02 inf =   0.000e+00 (3371) 27 3%
#725024: obj =   2.560559420e+02 inf =   2.002e-15 (3496) 25 8%
Warning: numerical instability (dual simplex, phase II)
 725311: sum =   0.000000000e+00 inf =   0.000e+00 (0) 3 32%
Warning: numerical instability (dual simplex, phase II)
 725400: sum =   0.000000000e+00 inf =   0.000e+00 (0) 1 6%
Warning: numerical instability (dual simplex, phase II)
 725734: sum =   0.000000000e+00 inf =   0.000e+00 (0) 3 54%
Warning: numerical instability (dual simplex, phase II)
Warning: numerical instability (dual simplex, phase I)
 728365: sum =   8.130012930e-08 inf =   6.573e-07 (0) 24 6%
 728397: sum =   0.000000000e+00 inf =   9.185e-07 (0) 0%
Warning: numerical instability (dual simplex, phase II)
 728572: sum =   0.000000000e+00 inf =   0.000e+00 (0) 1 33%
Warning: numerical instability (dual simplex, phase II)
Warning: dual simplex failed due to excessive numerical instability
 734041: obj =   4.248615069e+02 inf =   8.630e+00 (23) 47 78%
 735937: obj =   4.625062587e+02 inf =   3.125e-01 (1) 17 50%
+735937: mip =     not found yet >=   2.670000000e+02        (380; 116)
#741178: obj =   2.670000017e+02 inf =   0.000e+00 (1666) 50 96%
#743823: obj =   2.670988367e+02 inf =   0.000e+00 (554) 26 86%
#744505: obj =   2.671287971e+02 inf =   0.000e+00 (0) 6 73%
+744505: mip =     not found yet >=   2.670000000e+02        (380; 116)
Time used: 1404.5 secs.  Memory used: 21.8 Mb.
+749813: mip =     not found yet >=   2.670000000e+02        (380; 117)
+754862: mip =     not found yet >=   2.670000000e+02        (384; 118)
#760535: obj =   2.677787448e+02 inf =   0.000e+00 (1041) 53 82%
#760835: obj =   2.678253092e+02 inf =   0.000e+00 (0) 3 61%
+760835: mip =     not found yet >=   2.670000000e+02        (384; 118)
+764419: mip =     not found yet >=   2.670000000e+02        (388; 118)
+769625: mip =     not found yet >=   2.670000000e+02        (390; 118)
+773028: mip =     not found yet >=   2.670000000e+02        (391; 119)
+776298: mip =     not found yet >=   2.670000000e+02        (390; 120)
#781519: obj =   2.679903385e+02 inf =   0.000e+00 (2978) 50 95%
#781797: obj =   2.688330512e+02 inf =   0.000e+00 (3952) 3 77%
+781797: mip =     not found yet >=   2.670000000e+02        (388; 122)
Time used: 1471.6 secs.  Memory used: 22.0 Mb.
+786290: mip =     not found yet >=   2.670000000e+02        (388; 122)
+792105: mip =     not found yet >=   2.670000000e+02        (392; 123)
+797726: mip =     not found yet >=   2.670000000e+02        (394; 127)
+801835: mip =     not found yet >=   2.670000000e+02        (394; 127)
+808237: mip =     not found yet >=   2.670000000e+02        (399; 129)
+812555: mip =     not found yet >=   2.670000000e+02        (404; 129)
+815394: mip =     not found yet >=   2.670000000e+02        (393; 143)
#820349: obj =   2.670000000e+02 inf =   0.000e+00 (3147) 47 95%
#822798: obj =   2.670000257e+02 inf =   0.000e+00 (4568) 24 99%
#823959: obj =   2.684648703e+02 inf =   1.084e-19 (2591) 10 66%
+823959: mip =     not found yet >=   2.670000000e+02        (389; 147)
Time used: 1548.2 secs.  Memory used: 22.2 Mb.
+827275: mip =     not found yet >=   2.670000000e+02        (389; 148)
+830428: mip =     not found yet >=   2.670000000e+02        (399; 148)
+833867: mip =     not found yet >=   2.670000000e+02        (408; 155)
+839754: mip =     not found yet >=   2.670000000e+02        (413; 156)
+845131: mip =     not found yet >=   2.670000000e+02        (424; 164)
#850376: obj =   2.704790774e+02 inf =   0.000e+00 (2211) 49 82%
#850571: obj =   2.705978366e+02 inf =   0.000e+00 (1623) 2 75%
+850571: mip =     not found yet >=   2.670000000e+02        (421; 167)
#855736: obj =   2.812921852e+02 inf =   0.000e+00 (3871) 49 93%
#857843: obj =   2.831839883e+02 inf =   0.000e+00 (3852) 20 58%
#859664: obj =   2.887133378e+02 inf =   0.000e+00 (4966) 18 34%
#861351: obj =   2.914797602e+02 inf =   0.000e+00 (4182) 14 10%
#863512: obj =   2.918481022e+02 inf =   0.000e+00 (3663) 19 50%
#865587: obj =   2.926333725e+02 inf =   0.000e+00 (3570) 20 64%
#868083: obj =   3.003834979e+02 inf =   0.000e+00 (3038) 23 97%
#870360: obj =   3.085688926e+02 inf =   0.000e+00 (4138) 22 99%
+870360: mip =     not found yet >=   2.670000000e+02        (419; 169)
Time used: 1640.8 secs.  Memory used: 22.6 Mb.
+873932: mip =     not found yet >=   2.670000000e+02        (432; 171)
#882159: obj =   2.726408281e+02 inf =   0.000e+00 (1109) 52 76%
#885078: obj =   2.735417859e+02 inf =   0.000e+00 (506) 28 71%
#885282: obj =   2.735555798e+02 inf =   0.000e+00 (0) 2 72%
+885282: mip =     not found yet >=   2.670000000e+02        (443; 172)
#890672: obj =   2.985001924e+02 inf =   0.000e+00 (2739) 50 78%
#893480: obj =   2.999366652e+02 inf =   0.000e+00 (1928) 27 90%
#896209: obj =   3.003601422e+02 inf =   0.000e+00 (2578) 26 72%
#896766: obj =   3.004082844e+02 inf =   0.000e+00 (0) 6 65%
+896766: mip =     not found yet >=   2.670000000e+02        (444; 172)
#901595: obj =   3.031947052e+02 inf =   0.000e+00 (2946) 45 64%
#904333: obj =   3.035526622e+02 inf =   0.000e+00 (2453) 26 99%
#906989: obj =   3.035764721e+02 inf =   0.000e+00 (2060) 26 98%
#909684: obj =   3.036074918e+02 inf =   0.000e+00 (1333) 25 90%
#910178: obj =   3.036390541e+02 inf =   0.000e+00 (0) 5 83%
+910178: mip =     not found yet >=   2.670000000e+02        (445; 172)
Time used: 1712.8 secs.  Memory used: 22.7 Mb.
#916844: obj =   3.132267885e+02 inf =   0.000e+00 (2441) 54 79%
#919506: obj =   3.167057471e+02 inf =   0.000e+00 (2471) 25 98%
#920390: obj =   3.171000169e+02 inf =   5.337e-14 (1555) 9 98%
+920390: mip =     not found yet >=   2.670000000e+02        (445; 173)
#925672: obj =   2.805112197e+02 inf =   0.000e+00 (2718) 49 76%
#928072: obj =   7.141808484e+02 inf =   0.000e+00 (3653) 23 85%
#929628: obj =   4.838641744e+03 inf =   0.000e+00 (3948) 16 8%
#930036: obj =   5.227880900e+03 inf =   5.660e-11 (3747) 4 21%
+930036: mip =     not found yet >=   2.670000000e+02        (425; 193)
+935040: mip =     not found yet >=   2.670000000e+02        (424; 194)
